80 14047570
13 49 63 52 56 75 62 5 34 55 24 47 54 11 79 76 35 30 22 58 18 2 1 71 19 20 14 28 25 44 61 41 27 40 73 77 43 23 59 26 31 8 50 12 39 69 29 9 4 48 37 36 7 42 57 51 16 17 68 78 80 70 72 60 74 65 66 32 64 21 10 3 45 33 38 6 15 46 67 53 
